3
6
6
60
1 9 0
1 36 1 4
3 9 1 2
1 21 1 1
3 9 0
2 12 1 1
2
5
1 9 1 2
1 12 0
2
3
1 18 1 2
1 15 0
6
50
1 6 1 3
1 18 1 3
1 9 0
1 6 1 3
2 12 0
2 6 0
8
64
1 15 1 5
1 21 1 1
1 9 1 1
2 51 0
2 81 0
1 30 1 5
1 12 1 4
1 21 2 4 7
2
1
1 6 1 2
1 15 0
